(set-logic LIA)
(synth-fun fn ((vr0 Int) (vr1 Int) (vr2 Int)) Int)
(declare-var vr0 Int)
(declare-var vr1 Int)
(declare-var vr2 Int)
(constraint (>= (fn vr0 vr1 vr2 ) vr0 ) )
(constraint (>= (fn vr0 vr1 vr2 ) vr1 ) )
(constraint (>= (fn vr0 vr1 vr2 ) vr2 ) )
(constraint (or (= vr0 (fn vr0 vr1 vr2 ) ) ( or (= vr1 ( fn vr0 vr1 vr2 ) ) (= vr2 ( fn vr0 vr1 vr2 )) ) ) )
(check-synth)